
Gurobi 12.0.2 (win64) logging started Fri Jun  6 10:10:02 2025

Set parameter LogFile to value "C:\Ioana\_uni\honours\slp\algorithm\Main_files\results\others\prox_tubules_new\Task_009_Sample005_irr_gurobi.log"
Gurobi Optimizer version 12.0.2 build v12.0.2rc0 (win64 - Windows 11.0 (26100.2))

CPU model: Intel(R) Core(TM) Ultra 5 125H, instruction set [SSE2|AVX|AVX2]
Thread count: 14 physical cores, 18 logical processors, using up to 18 threads

Non-default parameters:
TimeLimit  2200

Optimize a model with 47658 rows, 34794 columns and 147841 nonzeros
Model fingerprint: 0x50b106e1
Variable types: 17400 continuous, 17394 integer (17394 binary)
Coefficient statistics:
  Matrix range     [1e-04, 8e+04]
  Objective range  [5e-05, 3e+00]
  Bounds range     [1e+00, 1e+03]
  RHS range        [1e+00, 1e+00]
Presolve removed 31249 rows and 21835 columns
Presolve time: 0.32s
Presolved: 16409 rows, 12959 columns, 54590 nonzeros
Variable types: 6413 continuous, 6546 integer (6546 binary)

Root relaxation: objective 9.976222e-05, 2507 iterations, 0.13 seconds (0.31 work units)

    Nodes    |    Current Node    |     Objective Bounds      |     Work
 Expl Unexpl |  Obj  Depth IntInf | Incumbent    BestBd   Gap | It/Node Time

     0     0    0.00010    0    7          -    0.00010      -     -    0s
H    0     0                       0.0471538    0.00010   100%     -    0s
     0     0    0.00324    0   15    0.04715    0.00324  93.1%     -    0s
     0     0    0.04633    0    1    0.04715    0.04633  1.75%     -    0s

Explored 1 nodes (2581 simplex iterations) in 0.75 seconds (0.91 work units)
Thread count was 18 (of 18 available processors)

Solution count 1: 0.0471538 

Optimal solution found (tolerance 1.00e-04)
Best objective 4.715383387363e-02, best bound 4.715383387363e-02, gap 0.0000%
